42	0

0	2	2	3
6	2	6	7
4	2	4	5
6	2	6	7
10	2	6	7
10	1	9
2	1	8
2	3	9	10	11
1	3	12	13	17
7	3	12	13	17
7	3	12	13	17
4	2	15	16
1	2	14	16
5	4	15	18	19	21
8	2	22	23
3	3	18	19	21
8	2	18	21
2	3	20	22	23
4	3	20	22	23
9	2	24	25
7	2	22	23
2	2	24	25
2	2	24	25
10	2	26	27
10	2	26	27
1	2	28	29
3	1	28
4	3	30	31	32
6	3	30	31	32
4	1	33
1	2	33	35
1	2	33	35
1	2	34	37
8	2	36	38
5	2	36	37
8	2	39	40
10	1	38
5	2	39	40
7	1	41
9	1	42
4	1	42
0	0
